\ Model grbacs
\ LP format - for model browsing. Use MPS format to capture full model detail.
Minimize
  lincost + 1085 constant + [ 2200 GP_1_1 ^2 + 1700 GP_2_2 ^2
   + 2450 GP_3_3 ^2 ] / 2
Subject To
 lincostdef: 500 GP_1_1 + 120 GP_2_2 + 100 GP_3_3 - lincost = 0
 Pdef_1_1_4: - 17.36111111111111 theta_1 + 17.36111111111111 theta_4
   + P_1_1_4 + twinP_1_1_4 = 0
 upmip_1_1_4: P_1_1_4 - 2.5 z_1_1_4 <= 0
 dnmip_1_1_4: P_1_1_4 + 2.5 z_1_1_4 >= 0
 upmip_twin_1_1_4: twinP_1_1_4 + 2.5 z_1_1_4 <= 2.5
 dnmip_twin_1_1_4: twinP_1_1_4 - 2.5 z_1_1_4 >= -2.5
 Pdef_2_4_5: - 10.8695652173913 theta_4 + 10.8695652173913 theta_5
   + P_2_4_5 + twinP_2_4_5 = 0
 upmip_2_4_5: P_2_4_5 - 2.5 z_2_4_5 <= 0
 dnmip_2_4_5: P_2_4_5 + 2.5 z_2_4_5 >= 0
 upmip_twin_2_4_5: twinP_2_4_5 + 2.5 z_2_4_5 <= 2.5
 dnmip_twin_2_4_5: twinP_2_4_5 - 2.5 z_2_4_5 >= -2.5
 Pdef_3_5_6: - 5.88235294117647 theta_5 + 5.88235294117647 theta_6
   + P_3_5_6 + twinP_3_5_6 = 0
 upmip_3_5_6: P_3_5_6 - 1.5 z_3_5_6 <= 0
 dnmip_3_5_6: P_3_5_6 + 1.5 z_3_5_6 >= 0
 upmip_twin_3_5_6: twinP_3_5_6 + 1.5 z_3_5_6 <= 1.5
 dnmip_twin_3_5_6: twinP_3_5_6 - 1.5 z_3_5_6 >= -1.5
 Pdef_4_3_6: - 17.06484641638225 theta_3 + 17.06484641638225 theta_6
   + P_4_3_6 + twinP_4_3_6 = 0
 upmip_4_3_6: P_4_3_6 - 3 z_4_3_6 <= 0
 dnmip_4_3_6: P_4_3_6 + 3 z_4_3_6 >= 0
 upmip_twin_4_3_6: twinP_4_3_6 + 3 z_4_3_6 <= 3
 dnmip_twin_4_3_6: twinP_4_3_6 - 3 z_4_3_6 >= -3
 Pdef_5_6_7: - 9.920634920634921 theta_6 + 9.920634920634921 theta_7
   + P_5_6_7 + twinP_5_6_7 = 0
 upmip_5_6_7: P_5_6_7 - 1.5 z_5_6_7 <= 0
 dnmip_5_6_7: P_5_6_7 + 1.5 z_5_6_7 >= 0
 upmip_twin_5_6_7: twinP_5_6_7 + 1.5 z_5_6_7 <= 1.5
 dnmip_twin_5_6_7: twinP_5_6_7 - 1.5 z_5_6_7 >= -1.5
 Pdef_6_7_8: - 13.88888888888889 theta_7 + 13.88888888888889 theta_8
   + P_6_7_8 + twinP_6_7_8 = 0
 upmip_6_7_8: P_6_7_8 - 2.5 z_6_7_8 <= 0
 dnmip_6_7_8: P_6_7_8 + 2.5 z_6_7_8 >= 0
 upmip_twin_6_7_8: twinP_6_7_8 + 2.5 z_6_7_8 <= 2.5
 dnmip_twin_6_7_8: twinP_6_7_8 - 2.5 z_6_7_8 >= -2.5
 Pdef_7_8_2: 16 theta_2 - 16 theta_8 + P_7_8_2 + twinP_7_8_2 = 0
 upmip_7_8_2: P_7_8_2 - 2.5 z_7_8_2 <= 0
 dnmip_7_8_2: P_7_8_2 + 2.5 z_7_8_2 >= 0
 upmip_twin_7_8_2: twinP_7_8_2 + 2.5 z_7_8_2 <= 2.5
 dnmip_twin_7_8_2: twinP_7_8_2 - 2.5 z_7_8_2 >= -2.5
 Pdef_8_8_9: - 6.211180124223603 theta_8 + 6.211180124223603 theta_9
   + P_8_8_9 + twinP_8_8_9 = 0
 upmip_8_8_9: P_8_8_9 - 2.5 z_8_8_9 <= 0
 dnmip_8_8_9: P_8_8_9 + 2.5 z_8_8_9 >= 0
 upmip_twin_8_8_9: twinP_8_8_9 + 2.5 z_8_8_9 <= 2.5
 dnmip_twin_8_8_9: twinP_8_8_9 - 2.5 z_8_8_9 >= -2.5
 Pdef_9_9_4: 11.76470588235294 theta_4 - 11.76470588235294 theta_9
   + P_9_9_4 + twinP_9_9_4 = 0
 upmip_9_9_4: P_9_9_4 - 2.5 z_9_9_4 <= 0
 dnmip_9_9_4: P_9_9_4 + 2.5 z_9_9_4 >= 0
 upmip_twin_9_9_4: twinP_9_9_4 + 2.5 z_9_9_4 <= 2.5
 dnmip_twin_9_9_4: twinP_9_9_4 - 2.5 z_9_9_4 >= -2.5
 PBaldef1_1: - IP_1 + P_1_1_4 = 0
 PBaldef2_2: - IP_2 - P_7_8_2 = 0
 PBaldef3_3: - IP_3 + P_4_3_6 = 0
 PBaldef4_4: - IP_4 - P_1_1_4 + P_2_4_5 - P_9_9_4 = 0
 PBaldef5_5: - IP_5 - P_2_4_5 + P_3_5_6 = 0
 PBaldef6_6: - IP_6 - P_3_5_6 - P_4_3_6 + P_5_6_7 = 0
 PBaldef7_7: - IP_7 - P_5_6_7 + P_6_7_8 = 0
 PBaldef8_8: - IP_8 - P_6_7_8 + P_7_8_2 + P_8_8_9 = 0
 PBaldef9_9: - IP_9 - P_8_8_9 + P_9_9_4 = 0
 Bus_PInj_1: IP_1 - GP_1_1 = 0
 Bus_PInj_2: IP_2 - GP_2_2 = 0
 Bus_PInj_3: IP_3 - GP_3_3 = 0
 Bus_PInj_4: IP_4 = 0
 Bus_PInj_5: IP_5 = -0.9
 Bus_PInj_6: IP_6 = 0
 Bus_PInj_7: IP_7 = -1
 Bus_PInj_8: IP_8 = 0
 Bus_PInj_9: IP_9 = -1.25
 sumzbd: z_1_1_4 + z_2_4_5 + z_3_5_6 + z_4_3_6 + z_5_6_7 + z_6_7_8
   + z_7_8_2 + z_8_8_9 + z_9_9_4 >= 0
Bounds
 -6.283185307179586 <= theta_1 <= 6.283185307179586
 0.1 <= IP_1 <= 2.5
 0.1 <= GP_1_1 <= 2.5
 -6.283185307179586 <= theta_2 <= 6.283185307179586
 0.1 <= IP_2 <= 3
 0.1 <= GP_2_2 <= 3
 -6.283185307179586 <= theta_3 <= 6.283185307179586
 0.1 <= IP_3 <= 2.7
 0.1 <= GP_3_3 <= 2.7
 -6.283185307179586 <= theta_4 <= 6.283185307179586
 IP_4 = 0
 -6.283185307179586 <= theta_5 <= 6.283185307179586
 IP_5 = -0.9
 -6.283185307179586 <= theta_6 <= 6.283185307179586
 IP_6 = 0
 -6.283185307179586 <= theta_7 <= 6.283185307179586
 IP_7 = -1
 -6.283185307179586 <= theta_8 <= 6.283185307179586
 IP_8 = 0
 -6.283185307179586 <= theta_9 <= 6.283185307179586
 IP_9 = -1.25
 -2.5 <= P_1_1_4 <= 2.5
 -2.5 <= twinP_1_1_4 <= 2.5
 -2.5 <= P_2_4_5 <= 2.5
 -2.5 <= twinP_2_4_5 <= 2.5
 -1.5 <= P_3_5_6 <= 1.5
 -1.5 <= twinP_3_5_6 <= 1.5
 -3 <= P_4_3_6 <= 3
 -3 <= twinP_4_3_6 <= 3
 -1.5 <= P_5_6_7 <= 1.5
 -1.5 <= twinP_5_6_7 <= 1.5
 -2.5 <= P_6_7_8 <= 2.5
 -2.5 <= twinP_6_7_8 <= 2.5
 -2.5 <= P_7_8_2 <= 2.5
 -2.5 <= twinP_7_8_2 <= 2.5
 -2.5 <= P_8_8_9 <= 2.5
 -2.5 <= twinP_8_8_9 <= 2.5
 -2.5 <= P_9_9_4 <= 2.5
 -2.5 <= twinP_9_9_4 <= 2.5
 z_1_1_4 <= 1
 z_2_4_5 <= 1
 z_3_5_6 <= 1
 z_4_3_6 <= 1
 z_5_6_7 <= 1
 z_6_7_8 <= 1
 z_7_8_2 <= 1
 z_8_8_9 <= 1
 z_9_9_4 <= 1
 lincost free
 constant = 1
Generals
 z_1_1_4 z_2_4_5 z_3_5_6 z_4_3_6 z_5_6_7 z_6_7_8 z_7_8_2 z_8_8_9 z_9_9_4
End
